SAT
-1 -100 -99 98 11 29 -95 35 -28 10 65 76 51 87 33 -72 82 55 20 19 -81 -26 -59 85 36 74 18 -79 94 52 43 -5 -86 -62 -83 22 60 -16 -2 97 -27 75 53 -17 -91 -66 21 -9 -42 15 -57 -92 32 -89 -71 77 12 -38 -54 -34 -96 45 -37 4 -13 -40 50 -31 -73 41 -63 -67 48 78 -25 70 -93 -47 80 56 -46 68 23 58 -88 -49 -64 -90 -69 6 -61 -44 -7 -24 -3 -30 -39 -84 -8 14 0
